100 64866

 419 928
715 829
862 323
155 238
452 263
409 505
688 745
250 504
641 68
878 724
419 806
912 290
994 665
107 427
234 890
951 846
959 526
98 692
15 884
162 496
997 314
180 754
503 221
849 389
21 866
605 725
278 404
863 215
284 356
687 285
675 177
222 744
35 253
410 455
290 386
809 983
801 392
458 80
607 90
605 591
828 600
426 419
276 432
266 54
537 517
450 505
441 150
92 104
719 124
214 102
197 610
413 197
228 252
584 174
372 958
449 855
538 231
204 328
156 210
881 492
434 20
413 672
36 524
498 899
555 165
559 805
708 792
178 128
253 399
811 171
948 255
136 264
498 557
215 412
61 948
326 127
144 974
710 231
534 773
144 339
10 144
809 858
177 309
607 659
337 567
586 472
316 496
87 733
223 88
189 669
429 896
659 58
264 141
13 717
519 438
606 404
963 137
590 507
472 127
574 477
